benchmarks/VRPTW/TSPTW/solution/n60w20.005.txt.solution
1 9 12 14 36 19 27 43 52 13 51 34 8 30 35 4 45 48 11 21 56 17 29 38 46 20 59 3 50 26 22 33 49 47 54 23 2 53 57 18 7 58 40 28 37 55 32 44 24 39 41 60 31 15 10 6 25 61 16 42 5 
603
